### TBC-1 input script for LAMMPS version 7 Dec 2015

#thermal properties of CNT_1_19_1.53

log /ascldap/users/bcma/Thermal_CNT_1_19_1.53/Thermal_CNT_1_19_1.53.log.lammps

# Variables
variable TEMP equal 600 # temperature
variable dt equal 0.0005 # timestep
variable    L1 equal 5 # box size in lattice unit
variable    L2 equal 4 # box size in lattice unit
variable    L3 equal 4 # box size in lattice unit
variable  a equal 5.431 # lattice constant

# Neighbor settings
neighbor    1.0 bin
neigh_modify every 10 delay 0 check yes

# Box, units, atom style, lattice, and mass
units          metal
dimension 	    3
boundary       p p p
atom_style 	atomic
newton 		on

read_data	CNT_1_19_1.53.dat

# Pair style commands for TBC-1
  pair_style airebo 3.0
  pair_coeff * * /ascldap/users/bcma/CH.airebo C

# Computes
compute      myKE all ke/atom
compute      myPE all pe/atom
compute      myStress all stress/atom NULL virial
compute myFlux all heat/flux myKE myPE myStress

# Initial velocity and thermo settings
comm_modify  vel yes
velocity all create ${TEMP} 10101 rot yes mom yes # initial velocities
thermo 1000
thermo_style custom step pe ke press vol

# Run MD and dump positions.
# Equilibration run.
fix 1 all nve
#fix 1 all npt temp ${TEMP} ${TEMP} 50.0 iso 0.0 0.0 100
timestep  ${dt}
dump 1 all xyz 100 dump_equilibration.xyz
#dump 2 all custom 100 dump.positions id type x y z
#dump 1 all custom 5 dump.velocities vx vy vz
#dump_modify 1 header no
run 200000
unfix 1
undump 1

thermo 5
thermo_style custom step temp c_myFlux[1]

# Run MD and dump positions.
# Production run.
fix 1 all nve
#fix 1 all npt temp ${TEMP} ${TEMP} 50.0 iso 0.0 0.0 100
timestep  ${dt}
dump 1 all xyz 100 dump_production.xyz
#dump 2 all custom 100 dump.positions id type x y z
#dump 1 all custom 5 dump.velocities vx vy vz
#dump_modify 1 header no
run 2000000
unfix 1
undump 1

